NAME: instance_959
TYPE: TSP
DIMENSION: 20
EDGE_WEIGHT_TYPE: EUC_2D
NODE_COORD_SECTION
0 6.14 98.56
1 62.32 42.70
2 69.85 25.92
3 53.91 8.76
4 96.14 94.38
5 4.35 23.08
6 55.16 12.13
7 88.05 3.07
8 46.27 3.22
9 78.49 85.90
10 22.82 21.41
11 57.91 78.72
12 7.93 75.38
13 66.08 2.46
14 92.65 49.05
15 71.09 28.26
16 57.93 46.58
17 51.08 21.19
18 29.39 48.52
19 95.05 50.78
EOF
